; benchmark generated from python API
(set-info :status unknown)
(define-funs-rec ( ( T2_08 ((x!1 Int)) Int)
                   ( b2_08 ((x!1 Int)) Int)
                   ( T2_01 ((x!1 Int)) Int)
                   ( p2_01 ((x!1 Int)) Int))
                 ( (mod ((_ b2_08 0) x!1) 2)
                   (let ((a!1 (- ((_ b2_08 0) (+ (div x!1 2) (mod x!1 2)))
                                 ((_ b2_08 0) (div x!1 2)))))
                     (ite (< x!1 2) x!1 a!1))
                   (mod ((_ p2_01 0) x!1) 2)
                   (ite (= x!1 0) 0 (+ ((_ p2_01 0) (div x!1 2)) x!1))))
(assert
 (forall ((n Int) )(let ((?x358 ((_ T2_08 0) n)))
(let ((?x322 ((_ T2_01 0) n)))
(let (($x380 (= ?x322 ?x358)))
(let (($x356 (>= n 0)))
(=> $x356 $x380))))))
)
(check-sat)
